sat
(
(define-fun sym623 () String "")
(define-fun sym965 () String "")
(define-fun sym737 () String "")
(define-fun sym1307 () String "")
(define-fun sym1912 () String "")
(define-fun sym509 () String "")
(define-fun sym395 () String "")
(define-fun sym242 () String "")
(define-fun sym2714 () String "N")
(define-fun sym1457 () String "HIGH SCHOOL")
(define-fun sym122 () String "ELEMENTARY")
(define-fun sym1798 () String "")
(define-fun sym2368 () String "")
(define-fun sym1433 () String "Y")
(define-fun sym851 () String "")
(define-fun sym1079 () String "")
(define-fun sym1684 () String "")
(define-fun sym2026 () String "")
(define-fun sym2254 () String "")
(define-fun sym2596 () String "")
(define-fun sym1570 () String "")
(define-fun sym2140 () String "")
(define-fun sym2482 () String "")
(define-fun sym1193 () String "")
)
